c *********************************
c * Circuit generated by BenCGen
c *
c * Parity_356
c *
c * Ports with 1 gate(s): 1
c * Ports with 2 gate(s): 356
c * Total gates: 357
c *********************************
p cnf 713 1425
1 359 0
-1 -359 0
1 -358 0
359 -358 0
-1 -359 358 0
1 2 -360 0
-1 2 360 0
1 -2 360 0
-1 -2 -360 0
3 4 -361 0
-3 4 361 0
3 -4 361 0
-3 -4 -361 0
5 6 -362 0
-5 6 362 0
5 -6 362 0
-5 -6 -362 0
7 8 -363 0
-7 8 363 0
7 -8 363 0
-7 -8 -363 0
9 10 -364 0
-9 10 364 0
9 -10 364 0
-9 -10 -364 0
11 12 -365 0
-11 12 365 0
11 -12 365 0
-11 -12 -365 0
13 14 -366 0
-13 14 366 0
13 -14 366 0
-13 -14 -366 0
15 16 -367 0
-15 16 367 0
15 -16 367 0
-15 -16 -367 0
17 18 -368 0
-17 18 368 0
17 -18 368 0
-17 -18 -368 0
19 20 -369 0
-19 20 369 0
19 -20 369 0
-19 -20 -369 0
21 22 -370 0
-21 22 370 0
21 -22 370 0
-21 -22 -370 0
23 24 -371 0
-23 24 371 0
23 -24 371 0
-23 -24 -371 0
25 26 -372 0
-25 26 372 0
25 -26 372 0
-25 -26 -372 0
27 28 -373 0
-27 28 373 0
27 -28 373 0
-27 -28 -373 0
29 30 -374 0
-29 30 374 0
29 -30 374 0
-29 -30 -374 0
31 32 -375 0
-31 32 375 0
31 -32 375 0
-31 -32 -375 0
33 34 -376 0
-33 34 376 0
33 -34 376 0
-33 -34 -376 0
35 36 -377 0
-35 36 377 0
35 -36 377 0
-35 -36 -377 0
37 38 -378 0
-37 38 378 0
37 -38 378 0
-37 -38 -378 0
39 40 -379 0
-39 40 379 0
39 -40 379 0
-39 -40 -379 0
41 42 -380 0
-41 42 380 0
41 -42 380 0
-41 -42 -380 0
43 44 -381 0
-43 44 381 0
43 -44 381 0
-43 -44 -381 0
45 46 -382 0
-45 46 382 0
45 -46 382 0
-45 -46 -382 0
47 48 -383 0
-47 48 383 0
47 -48 383 0
-47 -48 -383 0
49 50 -384 0
-49 50 384 0
49 -50 384 0
-49 -50 -384 0
51 52 -385 0
-51 52 385 0
51 -52 385 0
-51 -52 -385 0
53 54 -386 0
-53 54 386 0
53 -54 386 0
-53 -54 -386 0
55 56 -387 0
-55 56 387 0
55 -56 387 0
-55 -56 -387 0
57 58 -388 0
-57 58 388 0
57 -58 388 0
-57 -58 -388 0
59 60 -389 0
-59 60 389 0
59 -60 389 0
-59 -60 -389 0
61 62 -390 0
-61 62 390 0
61 -62 390 0
-61 -62 -390 0
63 64 -391 0
-63 64 391 0
63 -64 391 0
-63 -64 -391 0
65 66 -392 0
-65 66 392 0
65 -66 392 0
-65 -66 -392 0
67 68 -393 0
-67 68 393 0
67 -68 393 0
-67 -68 -393 0
69 70 -394 0
-69 70 394 0
69 -70 394 0
-69 -70 -394 0
71 72 -395 0
-71 72 395 0
71 -72 395 0
-71 -72 -395 0
73 74 -396 0
-73 74 396 0
73 -74 396 0
-73 -74 -396 0
75 76 -397 0
-75 76 397 0
75 -76 397 0
-75 -76 -397 0
77 78 -398 0
-77 78 398 0
77 -78 398 0
-77 -78 -398 0
79 80 -399 0
-79 80 399 0
79 -80 399 0
-79 -80 -399 0
81 82 -400 0
-81 82 400 0
81 -82 400 0
-81 -82 -400 0
83 84 -401 0
-83 84 401 0
83 -84 401 0
-83 -84 -401 0
85 86 -402 0
-85 86 402 0
85 -86 402 0
-85 -86 -402 0
87 88 -403 0
-87 88 403 0
87 -88 403 0
-87 -88 -403 0
89 90 -404 0
-89 90 404 0
89 -90 404 0
-89 -90 -404 0
91 92 -405 0
-91 92 405 0
91 -92 405 0
-91 -92 -405 0
93 94 -406 0
-93 94 406 0
93 -94 406 0
-93 -94 -406 0
95 96 -407 0
-95 96 407 0
95 -96 407 0
-95 -96 -407 0
97 98 -408 0
-97 98 408 0
97 -98 408 0
-97 -98 -408 0
99 100 -409 0
-99 100 409 0
99 -100 409 0
-99 -100 -409 0
101 102 -410 0
-101 102 410 0
101 -102 410 0
-101 -102 -410 0
103 104 -411 0
-103 104 411 0
103 -104 411 0
-103 -104 -411 0
105 106 -412 0
-105 106 412 0
105 -106 412 0
-105 -106 -412 0
107 108 -413 0
-107 108 413 0
107 -108 413 0
-107 -108 -413 0
109 110 -414 0
-109 110 414 0
109 -110 414 0
-109 -110 -414 0
111 112 -415 0
-111 112 415 0
111 -112 415 0
-111 -112 -415 0
113 114 -416 0
-113 114 416 0
113 -114 416 0
-113 -114 -416 0
115 116 -417 0
-115 116 417 0
115 -116 417 0
-115 -116 -417 0
117 118 -418 0
-117 118 418 0
117 -118 418 0
-117 -118 -418 0
119 120 -419 0
-119 120 419 0
119 -120 419 0
-119 -120 -419 0
121 122 -420 0
-121 122 420 0
121 -122 420 0
-121 -122 -420 0
123 124 -421 0
-123 124 421 0
123 -124 421 0
-123 -124 -421 0
125 126 -422 0
-125 126 422 0
125 -126 422 0
-125 -126 -422 0
127 128 -423 0
-127 128 423 0
127 -128 423 0
-127 -128 -423 0
129 130 -424 0
-129 130 424 0
129 -130 424 0
-129 -130 -424 0
131 132 -425 0
-131 132 425 0
131 -132 425 0
-131 -132 -425 0
133 134 -426 0
-133 134 426 0
133 -134 426 0
-133 -134 -426 0
135 136 -427 0
-135 136 427 0
135 -136 427 0
-135 -136 -427 0
137 138 -428 0
-137 138 428 0
137 -138 428 0
-137 -138 -428 0
139 140 -429 0
-139 140 429 0
139 -140 429 0
-139 -140 -429 0
141 142 -430 0
-141 142 430 0
141 -142 430 0
-141 -142 -430 0
143 144 -431 0
-143 144 431 0
143 -144 431 0
-143 -144 -431 0
145 146 -432 0
-145 146 432 0
145 -146 432 0
-145 -146 -432 0
147 148 -433 0
-147 148 433 0
147 -148 433 0
-147 -148 -433 0
149 150 -434 0
-149 150 434 0
149 -150 434 0
-149 -150 -434 0
151 152 -435 0
-151 152 435 0
151 -152 435 0
-151 -152 -435 0
153 154 -436 0
-153 154 436 0
153 -154 436 0
-153 -154 -436 0
155 156 -437 0
-155 156 437 0
155 -156 437 0
-155 -156 -437 0
157 158 -438 0
-157 158 438 0
157 -158 438 0
-157 -158 -438 0
159 160 -439 0
-159 160 439 0
159 -160 439 0
-159 -160 -439 0
161 162 -440 0
-161 162 440 0
161 -162 440 0
-161 -162 -440 0
163 164 -441 0
-163 164 441 0
163 -164 441 0
-163 -164 -441 0
165 166 -442 0
-165 166 442 0
165 -166 442 0
-165 -166 -442 0
167 168 -443 0
-167 168 443 0
167 -168 443 0
-167 -168 -443 0
169 170 -444 0
-169 170 444 0
169 -170 444 0
-169 -170 -444 0
171 172 -445 0
-171 172 445 0
171 -172 445 0
-171 -172 -445 0
173 174 -446 0
-173 174 446 0
173 -174 446 0
-173 -174 -446 0
175 176 -447 0
-175 176 447 0
175 -176 447 0
-175 -176 -447 0
177 178 -448 0
-177 178 448 0
177 -178 448 0
-177 -178 -448 0
179 180 -449 0
-179 180 449 0
179 -180 449 0
-179 -180 -449 0
181 182 -450 0
-181 182 450 0
181 -182 450 0
-181 -182 -450 0
183 184 -451 0
-183 184 451 0
183 -184 451 0
-183 -184 -451 0
185 186 -452 0
-185 186 452 0
185 -186 452 0
-185 -186 -452 0
187 188 -453 0
-187 188 453 0
187 -188 453 0
-187 -188 -453 0
189 190 -454 0
-189 190 454 0
189 -190 454 0
-189 -190 -454 0
191 192 -455 0
-191 192 455 0
191 -192 455 0
-191 -192 -455 0
193 194 -456 0
-193 194 456 0
193 -194 456 0
-193 -194 -456 0
195 196 -457 0
-195 196 457 0
195 -196 457 0
-195 -196 -457 0
197 198 -458 0
-197 198 458 0
197 -198 458 0
-197 -198 -458 0
199 200 -459 0
-199 200 459 0
199 -200 459 0
-199 -200 -459 0
201 202 -460 0
-201 202 460 0
201 -202 460 0
-201 -202 -460 0
203 204 -461 0
-203 204 461 0
203 -204 461 0
-203 -204 -461 0
205 206 -462 0
-205 206 462 0
205 -206 462 0
-205 -206 -462 0
207 208 -463 0
-207 208 463 0
207 -208 463 0
-207 -208 -463 0
209 210 -464 0
-209 210 464 0
209 -210 464 0
-209 -210 -464 0
211 212 -465 0
-211 212 465 0
211 -212 465 0
-211 -212 -465 0
213 214 -466 0
-213 214 466 0
213 -214 466 0
-213 -214 -466 0
215 216 -467 0
-215 216 467 0
215 -216 467 0
-215 -216 -467 0
217 218 -468 0
-217 218 468 0
217 -218 468 0
-217 -218 -468 0
219 220 -469 0
-219 220 469 0
219 -220 469 0
-219 -220 -469 0
221 222 -470 0
-221 222 470 0
221 -222 470 0
-221 -222 -470 0
223 224 -471 0
-223 224 471 0
223 -224 471 0
-223 -224 -471 0
225 226 -472 0
-225 226 472 0
225 -226 472 0
-225 -226 -472 0
227 228 -473 0
-227 228 473 0
227 -228 473 0
-227 -228 -473 0
229 230 -474 0
-229 230 474 0
229 -230 474 0
-229 -230 -474 0
231 232 -475 0
-231 232 475 0
231 -232 475 0
-231 -232 -475 0
233 234 -476 0
-233 234 476 0
233 -234 476 0
-233 -234 -476 0
235 236 -477 0
-235 236 477 0
235 -236 477 0
-235 -236 -477 0
237 238 -478 0
-237 238 478 0
237 -238 478 0
-237 -238 -478 0
239 240 -479 0
-239 240 479 0
239 -240 479 0
-239 -240 -479 0
241 242 -480 0
-241 242 480 0
241 -242 480 0
-241 -242 -480 0
243 244 -481 0
-243 244 481 0
243 -244 481 0
-243 -244 -481 0
245 246 -482 0
-245 246 482 0
245 -246 482 0
-245 -246 -482 0
247 248 -483 0
-247 248 483 0
247 -248 483 0
-247 -248 -483 0
249 250 -484 0
-249 250 484 0
249 -250 484 0
-249 -250 -484 0
251 252 -485 0
-251 252 485 0
251 -252 485 0
-251 -252 -485 0
253 254 -486 0
-253 254 486 0
253 -254 486 0
-253 -254 -486 0
255 256 -487 0
-255 256 487 0
255 -256 487 0
-255 -256 -487 0
257 258 -488 0
-257 258 488 0
257 -258 488 0
-257 -258 -488 0
259 260 -489 0
-259 260 489 0
259 -260 489 0
-259 -260 -489 0
261 262 -490 0
-261 262 490 0
261 -262 490 0
-261 -262 -490 0
263 264 -491 0
-263 264 491 0
263 -264 491 0
-263 -264 -491 0
265 266 -492 0
-265 266 492 0
265 -266 492 0
-265 -266 -492 0
267 268 -493 0
-267 268 493 0
267 -268 493 0
-267 -268 -493 0
269 270 -494 0
-269 270 494 0
269 -270 494 0
-269 -270 -494 0
271 272 -495 0
-271 272 495 0
271 -272 495 0
-271 -272 -495 0
273 274 -496 0
-273 274 496 0
273 -274 496 0
-273 -274 -496 0
275 276 -497 0
-275 276 497 0
275 -276 497 0
-275 -276 -497 0
277 278 -498 0
-277 278 498 0
277 -278 498 0
-277 -278 -498 0
279 280 -499 0
-279 280 499 0
279 -280 499 0
-279 -280 -499 0
281 282 -500 0
-281 282 500 0
281 -282 500 0
-281 -282 -500 0
283 284 -501 0
-283 284 501 0
283 -284 501 0
-283 -284 -501 0
285 286 -502 0
-285 286 502 0
285 -286 502 0
-285 -286 -502 0
287 288 -503 0
-287 288 503 0
287 -288 503 0
-287 -288 -503 0
289 290 -504 0
-289 290 504 0
289 -290 504 0
-289 -290 -504 0
291 292 -505 0
-291 292 505 0
291 -292 505 0
-291 -292 -505 0
293 294 -506 0
-293 294 506 0
293 -294 506 0
-293 -294 -506 0
295 296 -507 0
-295 296 507 0
295 -296 507 0
-295 -296 -507 0
297 298 -508 0
-297 298 508 0
297 -298 508 0
-297 -298 -508 0
299 300 -509 0
-299 300 509 0
299 -300 509 0
-299 -300 -509 0
301 302 -510 0
-301 302 510 0
301 -302 510 0
-301 -302 -510 0
303 304 -511 0
-303 304 511 0
303 -304 511 0
-303 -304 -511 0
305 306 -512 0
-305 306 512 0
305 -306 512 0
-305 -306 -512 0
307 308 -513 0
-307 308 513 0
307 -308 513 0
-307 -308 -513 0
309 310 -514 0
-309 310 514 0
309 -310 514 0
-309 -310 -514 0
311 312 -515 0
-311 312 515 0
311 -312 515 0
-311 -312 -515 0
313 314 -516 0
-313 314 516 0
313 -314 516 0
-313 -314 -516 0
315 316 -517 0
-315 316 517 0
315 -316 517 0
-315 -316 -517 0
317 318 -518 0
-317 318 518 0
317 -318 518 0
-317 -318 -518 0
319 320 -519 0
-319 320 519 0
319 -320 519 0
-319 -320 -519 0
321 322 -520 0
-321 322 520 0
321 -322 520 0
-321 -322 -520 0
323 324 -521 0
-323 324 521 0
323 -324 521 0
-323 -324 -521 0
325 326 -522 0
-325 326 522 0
325 -326 522 0
-325 -326 -522 0
327 328 -523 0
-327 328 523 0
327 -328 523 0
-327 -328 -523 0
329 330 -524 0
-329 330 524 0
329 -330 524 0
-329 -330 -524 0
331 332 -525 0
-331 332 525 0
331 -332 525 0
-331 -332 -525 0
333 334 -526 0
-333 334 526 0
333 -334 526 0
-333 -334 -526 0
335 336 -527 0
-335 336 527 0
335 -336 527 0
-335 -336 -527 0
337 338 -528 0
-337 338 528 0
337 -338 528 0
-337 -338 -528 0
339 340 -529 0
-339 340 529 0
339 -340 529 0
-339 -340 -529 0
341 342 -530 0
-341 342 530 0
341 -342 530 0
-341 -342 -530 0
343 344 -531 0
-343 344 531 0
343 -344 531 0
-343 -344 -531 0
345 346 -532 0
-345 346 532 0
345 -346 532 0
-345 -346 -532 0
347 348 -533 0
-347 348 533 0
347 -348 533 0
-347 -348 -533 0
349 350 -534 0
-349 350 534 0
349 -350 534 0
-349 -350 -534 0
351 352 -535 0
-351 352 535 0
351 -352 535 0
-351 -352 -535 0
353 354 -536 0
-353 354 536 0
353 -354 536 0
-353 -354 -536 0
355 356 -537 0
-355 356 537 0
355 -356 537 0
-355 -356 -537 0
360 361 -538 0
-360 361 538 0
360 -361 538 0
-360 -361 -538 0
362 363 -539 0
-362 363 539 0
362 -363 539 0
-362 -363 -539 0
364 365 -540 0
-364 365 540 0
364 -365 540 0
-364 -365 -540 0
366 367 -541 0
-366 367 541 0
366 -367 541 0
-366 -367 -541 0
368 369 -542 0
-368 369 542 0
368 -369 542 0
-368 -369 -542 0
370 371 -543 0
-370 371 543 0
370 -371 543 0
-370 -371 -543 0
372 373 -544 0
-372 373 544 0
372 -373 544 0
-372 -373 -544 0
374 375 -545 0
-374 375 545 0
374 -375 545 0
-374 -375 -545 0
376 377 -546 0
-376 377 546 0
376 -377 546 0
-376 -377 -546 0
378 379 -547 0
-378 379 547 0
378 -379 547 0
-378 -379 -547 0
380 381 -548 0
-380 381 548 0
380 -381 548 0
-380 -381 -548 0
382 383 -549 0
-382 383 549 0
382 -383 549 0
-382 -383 -549 0
384 385 -550 0
-384 385 550 0
384 -385 550 0
-384 -385 -550 0
386 387 -551 0
-386 387 551 0
386 -387 551 0
-386 -387 -551 0
388 389 -552 0
-388 389 552 0
388 -389 552 0
-388 -389 -552 0
390 391 -553 0
-390 391 553 0
390 -391 553 0
-390 -391 -553 0
392 393 -554 0
-392 393 554 0
392 -393 554 0
-392 -393 -554 0
394 395 -555 0
-394 395 555 0
394 -395 555 0
-394 -395 -555 0
396 397 -556 0
-396 397 556 0
396 -397 556 0
-396 -397 -556 0
398 399 -557 0
-398 399 557 0
398 -399 557 0
-398 -399 -557 0
400 401 -558 0
-400 401 558 0
400 -401 558 0
-400 -401 -558 0
402 403 -559 0
-402 403 559 0
402 -403 559 0
-402 -403 -559 0
404 405 -560 0
-404 405 560 0
404 -405 560 0
-404 -405 -560 0
406 407 -561 0
-406 407 561 0
406 -407 561 0
-406 -407 -561 0
408 409 -562 0
-408 409 562 0
408 -409 562 0
-408 -409 -562 0
410 411 -563 0
-410 411 563 0
410 -411 563 0
-410 -411 -563 0
412 413 -564 0
-412 413 564 0
412 -413 564 0
-412 -413 -564 0
414 415 -565 0
-414 415 565 0
414 -415 565 0
-414 -415 -565 0
416 417 -566 0
-416 417 566 0
416 -417 566 0
-416 -417 -566 0
418 419 -567 0
-418 419 567 0
418 -419 567 0
-418 -419 -567 0
420 421 -568 0
-420 421 568 0
420 -421 568 0
-420 -421 -568 0
422 423 -569 0
-422 423 569 0
422 -423 569 0
-422 -423 -569 0
424 425 -570 0
-424 425 570 0
424 -425 570 0
-424 -425 -570 0
426 427 -571 0
-426 427 571 0
426 -427 571 0
-426 -427 -571 0
428 429 -572 0
-428 429 572 0
428 -429 572 0
-428 -429 -572 0
430 431 -573 0
-430 431 573 0
430 -431 573 0
-430 -431 -573 0
432 433 -574 0
-432 433 574 0
432 -433 574 0
-432 -433 -574 0
434 435 -575 0
-434 435 575 0
434 -435 575 0
-434 -435 -575 0
436 437 -576 0
-436 437 576 0
436 -437 576 0
-436 -437 -576 0
438 439 -577 0
-438 439 577 0
438 -439 577 0
-438 -439 -577 0
440 441 -578 0
-440 441 578 0
440 -441 578 0
-440 -441 -578 0
442 443 -579 0
-442 443 579 0
442 -443 579 0
-442 -443 -579 0
444 445 -580 0
-444 445 580 0
444 -445 580 0
-444 -445 -580 0
446 447 -581 0
-446 447 581 0
446 -447 581 0
-446 -447 -581 0
448 449 -582 0
-448 449 582 0
448 -449 582 0
-448 -449 -582 0
450 451 -583 0
-450 451 583 0
450 -451 583 0
-450 -451 -583 0
452 453 -584 0
-452 453 584 0
452 -453 584 0
-452 -453 -584 0
454 455 -585 0
-454 455 585 0
454 -455 585 0
-454 -455 -585 0
456 457 -586 0
-456 457 586 0
456 -457 586 0
-456 -457 -586 0
458 459 -587 0
-458 459 587 0
458 -459 587 0
-458 -459 -587 0
460 461 -588 0
-460 461 588 0
460 -461 588 0
-460 -461 -588 0
462 463 -589 0
-462 463 589 0
462 -463 589 0
-462 -463 -589 0
464 465 -590 0
-464 465 590 0
464 -465 590 0
-464 -465 -590 0
466 467 -591 0
-466 467 591 0
466 -467 591 0
-466 -467 -591 0
468 469 -592 0
-468 469 592 0
468 -469 592 0
-468 -469 -592 0
470 471 -593 0
-470 471 593 0
470 -471 593 0
-470 -471 -593 0
472 473 -594 0
-472 473 594 0
472 -473 594 0
-472 -473 -594 0
474 475 -595 0
-474 475 595 0
474 -475 595 0
-474 -475 -595 0
476 477 -596 0
-476 477 596 0
476 -477 596 0
-476 -477 -596 0
478 479 -597 0
-478 479 597 0
478 -479 597 0
-478 -479 -597 0
480 481 -598 0
-480 481 598 0
480 -481 598 0
-480 -481 -598 0
482 483 -599 0
-482 483 599 0
482 -483 599 0
-482 -483 -599 0
484 485 -600 0
-484 485 600 0
484 -485 600 0
-484 -485 -600 0
486 487 -601 0
-486 487 601 0
486 -487 601 0
-486 -487 -601 0
488 489 -602 0
-488 489 602 0
488 -489 602 0
-488 -489 -602 0
490 491 -603 0
-490 491 603 0
490 -491 603 0
-490 -491 -603 0
492 493 -604 0
-492 493 604 0
492 -493 604 0
-492 -493 -604 0
494 495 -605 0
-494 495 605 0
494 -495 605 0
-494 -495 -605 0
496 497 -606 0
-496 497 606 0
496 -497 606 0
-496 -497 -606 0
498 499 -607 0
-498 499 607 0
498 -499 607 0
-498 -499 -607 0
500 501 -608 0
-500 501 608 0
500 -501 608 0
-500 -501 -608 0
502 503 -609 0
-502 503 609 0
502 -503 609 0
-502 -503 -609 0
504 505 -610 0
-504 505 610 0
504 -505 610 0
-504 -505 -610 0
506 507 -611 0
-506 507 611 0
506 -507 611 0
-506 -507 -611 0
508 509 -612 0
-508 509 612 0
508 -509 612 0
-508 -509 -612 0
510 511 -613 0
-510 511 613 0
510 -511 613 0
-510 -511 -613 0
512 513 -614 0
-512 513 614 0
512 -513 614 0
-512 -513 -614 0
514 515 -615 0
-514 515 615 0
514 -515 615 0
-514 -515 -615 0
516 517 -616 0
-516 517 616 0
516 -517 616 0
-516 -517 -616 0
518 519 -617 0
-518 519 617 0
518 -519 617 0
-518 -519 -617 0
520 521 -618 0
-520 521 618 0
520 -521 618 0
-520 -521 -618 0
522 523 -619 0
-522 523 619 0
522 -523 619 0
-522 -523 -619 0
524 525 -620 0
-524 525 620 0
524 -525 620 0
-524 -525 -620 0
526 527 -621 0
-526 527 621 0
526 -527 621 0
-526 -527 -621 0
528 529 -622 0
-528 529 622 0
528 -529 622 0
-528 -529 -622 0
530 531 -623 0
-530 531 623 0
530 -531 623 0
-530 -531 -623 0
532 533 -624 0
-532 533 624 0
532 -533 624 0
-532 -533 -624 0
534 535 -625 0
-534 535 625 0
534 -535 625 0
-534 -535 -625 0
536 537 -626 0
-536 537 626 0
536 -537 626 0
-536 -537 -626 0
538 539 -627 0
-538 539 627 0
538 -539 627 0
-538 -539 -627 0
540 541 -628 0
-540 541 628 0
540 -541 628 0
-540 -541 -628 0
542 543 -629 0
-542 543 629 0
542 -543 629 0
-542 -543 -629 0
544 545 -630 0
-544 545 630 0
544 -545 630 0
-544 -545 -630 0
546 547 -631 0
-546 547 631 0
546 -547 631 0
-546 -547 -631 0
548 549 -632 0
-548 549 632 0
548 -549 632 0
-548 -549 -632 0
550 551 -633 0
-550 551 633 0
550 -551 633 0
-550 -551 -633 0
552 553 -634 0
-552 553 634 0
552 -553 634 0
-552 -553 -634 0
554 555 -635 0
-554 555 635 0
554 -555 635 0
-554 -555 -635 0
556 557 -636 0
-556 557 636 0
556 -557 636 0
-556 -557 -636 0
558 559 -637 0
-558 559 637 0
558 -559 637 0
-558 -559 -637 0
560 561 -638 0
-560 561 638 0
560 -561 638 0
-560 -561 -638 0
562 563 -639 0
-562 563 639 0
562 -563 639 0
-562 -563 -639 0
564 565 -640 0
-564 565 640 0
564 -565 640 0
-564 -565 -640 0
566 567 -641 0
-566 567 641 0
566 -567 641 0
-566 -567 -641 0
568 569 -642 0
-568 569 642 0
568 -569 642 0
-568 -569 -642 0
570 571 -643 0
-570 571 643 0
570 -571 643 0
-570 -571 -643 0
572 573 -644 0
-572 573 644 0
572 -573 644 0
-572 -573 -644 0
574 575 -645 0
-574 575 645 0
574 -575 645 0
-574 -575 -645 0
576 577 -646 0
-576 577 646 0
576 -577 646 0
-576 -577 -646 0
578 579 -647 0
-578 579 647 0
578 -579 647 0
-578 -579 -647 0
580 581 -648 0
-580 581 648 0
580 -581 648 0
-580 -581 -648 0
582 583 -649 0
-582 583 649 0
582 -583 649 0
-582 -583 -649 0
584 585 -650 0
-584 585 650 0
584 -585 650 0
-584 -585 -650 0
586 587 -651 0
-586 587 651 0
586 -587 651 0
-586 -587 -651 0
588 589 -652 0
-588 589 652 0
588 -589 652 0
-588 -589 -652 0
590 591 -653 0
-590 591 653 0
590 -591 653 0
-590 -591 -653 0
592 593 -654 0
-592 593 654 0
592 -593 654 0
-592 -593 -654 0
594 595 -655 0
-594 595 655 0
594 -595 655 0
-594 -595 -655 0
596 597 -656 0
-596 597 656 0
596 -597 656 0
-596 -597 -656 0
598 599 -657 0
-598 599 657 0
598 -599 657 0
-598 -599 -657 0
600 601 -658 0
-600 601 658 0
600 -601 658 0
-600 -601 -658 0
602 603 -659 0
-602 603 659 0
602 -603 659 0
-602 -603 -659 0
604 605 -660 0
-604 605 660 0
604 -605 660 0
-604 -605 -660 0
606 607 -661 0
-606 607 661 0
606 -607 661 0
-606 -607 -661 0
608 609 -662 0
-608 609 662 0
608 -609 662 0
-608 -609 -662 0
610 611 -663 0
-610 611 663 0
610 -611 663 0
-610 -611 -663 0
612 613 -664 0
-612 613 664 0
612 -613 664 0
-612 -613 -664 0
614 615 -665 0
-614 615 665 0
614 -615 665 0
-614 -615 -665 0
616 617 -666 0
-616 617 666 0
616 -617 666 0
-616 -617 -666 0
618 619 -667 0
-618 619 667 0
618 -619 667 0
-618 -619 -667 0
620 621 -668 0
-620 621 668 0
620 -621 668 0
-620 -621 -668 0
622 623 -669 0
-622 623 669 0
622 -623 669 0
-622 -623 -669 0
624 625 -670 0
-624 625 670 0
624 -625 670 0
-624 -625 -670 0
627 628 -671 0
-627 628 671 0
627 -628 671 0
-627 -628 -671 0
629 630 -672 0
-629 630 672 0
629 -630 672 0
-629 -630 -672 0
631 632 -673 0
-631 632 673 0
631 -632 673 0
-631 -632 -673 0
633 634 -674 0
-633 634 674 0
633 -634 674 0
-633 -634 -674 0
635 636 -675 0
-635 636 675 0
635 -636 675 0
-635 -636 -675 0
637 638 -676 0
-637 638 676 0
637 -638 676 0
-637 -638 -676 0
639 640 -677 0
-639 640 677 0
639 -640 677 0
-639 -640 -677 0
641 642 -678 0
-641 642 678 0
641 -642 678 0
-641 -642 -678 0
643 644 -679 0
-643 644 679 0
643 -644 679 0
-643 -644 -679 0
645 646 -680 0
-645 646 680 0
645 -646 680 0
-645 -646 -680 0
647 648 -681 0
-647 648 681 0
647 -648 681 0
-647 -648 -681 0
649 650 -682 0
-649 650 682 0
649 -650 682 0
-649 -650 -682 0
651 652 -683 0
-651 652 683 0
651 -652 683 0
-651 -652 -683 0
653 654 -684 0
-653 654 684 0
653 -654 684 0
-653 -654 -684 0
655 656 -685 0
-655 656 685 0
655 -656 685 0
-655 -656 -685 0
657 658 -686 0
-657 658 686 0
657 -658 686 0
-657 -658 -686 0
659 660 -687 0
-659 660 687 0
659 -660 687 0
-659 -660 -687 0
661 662 -688 0
-661 662 688 0
661 -662 688 0
-661 -662 -688 0
663 664 -689 0
-663 664 689 0
663 -664 689 0
-663 -664 -689 0
665 666 -690 0
-665 666 690 0
665 -666 690 0
-665 -666 -690 0
667 668 -691 0
-667 668 691 0
667 -668 691 0
-667 -668 -691 0
669 670 -692 0
-669 670 692 0
669 -670 692 0
-669 -670 -692 0
671 672 -693 0
-671 672 693 0
671 -672 693 0
-671 -672 -693 0
673 674 -694 0
-673 674 694 0
673 -674 694 0
-673 -674 -694 0
675 676 -695 0
-675 676 695 0
675 -676 695 0
-675 -676 -695 0
677 678 -696 0
-677 678 696 0
677 -678 696 0
-677 -678 -696 0
679 680 -697 0
-679 680 697 0
679 -680 697 0
-679 -680 -697 0
681 682 -698 0
-681 682 698 0
681 -682 698 0
-681 -682 -698 0
683 684 -699 0
-683 684 699 0
683 -684 699 0
-683 -684 -699 0
685 686 -700 0
-685 686 700 0
685 -686 700 0
-685 -686 -700 0
687 688 -701 0
-687 688 701 0
687 -688 701 0
-687 -688 -701 0
689 690 -702 0
-689 690 702 0
689 -690 702 0
-689 -690 -702 0
691 692 -703 0
-691 692 703 0
691 -692 703 0
-691 -692 -703 0
693 694 -704 0
-693 694 704 0
693 -694 704 0
-693 -694 -704 0
695 696 -705 0
-695 696 705 0
695 -696 705 0
-695 -696 -705 0
697 698 -706 0
-697 698 706 0
697 -698 706 0
-697 -698 -706 0
699 700 -707 0
-699 700 707 0
699 -700 707 0
-699 -700 -707 0
701 702 -708 0
-701 702 708 0
701 -702 708 0
-701 -702 -708 0
703 626 -709 0
-703 626 709 0
703 -626 709 0
-703 -626 -709 0
704 705 -710 0
-704 705 710 0
704 -705 710 0
-704 -705 -710 0
706 707 -711 0
-706 707 711 0
706 -707 711 0
-706 -707 -711 0
708 709 -712 0
-708 709 712 0
708 -709 712 0
-708 -709 -712 0
710 711 -713 0
-710 711 713 0
710 -711 713 0
-710 -711 -713 0
713 712 -357 0
-713 712 357 0
713 -712 357 0
-713 -712 -357 0
